unsat
(:eliminated-applications 3
 :max-memory              18.02
 :memory                  17.91
 :num-allocs              5178
 :rlimit-count            931
 :time                    0.00
 :total-time              0.01)
